Route #1: 18 73 59 39 70 44 68 22 53
Route #2: 2 25 57 48 28 64 50 66 31
Route #3: 3 6 38 71 30 32 76
Route #4: 58 8 77 33 74 46 35 72
Route #5: 42 15 37 10 62 56 14 40 49 75 29 20
Route #6: 78 24 45 27 12 65 41 11 19 26
Route #7: 43 17 67 61 7 51 63
Route #8: 9 23 16 13 52 47
Route #9: 54 69 5 60 34
Route #10: 36 55 21 4
cost 1440
